
Gurobi 8.0.1 (win64, Python) logging started 10/03/18 22:04:06


Gurobi 8.0.1 (win64, Python) logging started 10/03/18 22:04:06


Gurobi 8.0.1 (win64, Python) logging started 10/03/18 22:04:06


Gurobi 8.0.1 (win64, Python) logging started 10/03/18 22:04:06


Gurobi 8.0.1 (win64, Python) logging started 10/03/18 22:04:06


Gurobi 8.0.1 (win64, Python) logging started 10/03/18 22:04:06


Gurobi 8.0.1 (win64, Python) logging started 10/03/18 22:04:06


Gurobi 8.0.1 (win64, Python) logging started 10/03/18 22:04:06


Gurobi 8.0.1 (win64, Python) logging started 10/03/18 22:04:06


Gurobi 8.0.1 (win64, Python) logging started 10/03/18 22:04:06


Gurobi 8.0.1 (win64, Python) logging started 10/03/18 22:04:06


Gurobi 8.0.1 (win64, Python) logging started 10/03/18 22:04:06


Gurobi 8.0.1 (win64, Python) logging started 10/03/18 22:04:06


Gurobi 8.0.1 (win64, Python) logging started 10/03/18 22:04:06


Gurobi 8.0.1 (win64, Python) logging started 10/03/18 22:04:06


Gurobi 8.0.1 (win64, Python) logging started 10/03/18 22:08:08


Gurobi 8.0.1 (win64, Python) logging started 10/03/18 22:08:08


Gurobi 8.0.1 (win64, Python) logging started 10/03/18 22:08:08


Gurobi 8.0.1 (win64, Python) logging started 10/03/18 22:08:08


Gurobi 8.0.1 (win64, Python) logging started 10/03/18 22:08:08


Gurobi 8.0.1 (win64, Python) logging started 10/03/18 22:08:08


Gurobi 8.0.1 (win64, Python) logging started 10/03/18 22:08:08


Gurobi 8.0.1 (win64, Python) logging started 10/03/18 22:08:08


Gurobi 8.0.1 (win64, Python) logging started 10/03/18 22:08:08


Gurobi 8.0.1 (win64, Python) logging started 10/03/18 22:08:08


Gurobi 8.0.1 (win64, Python) logging started 10/03/18 22:08:08


Gurobi 8.0.1 (win64, Python) logging started 10/03/18 22:08:08


Gurobi 8.0.1 (win64, Python) logging started 10/03/18 22:08:08


Gurobi 8.0.1 (win64, Python) logging started 10/03/18 22:08:08


Gurobi 8.0.1 (win64, Python) logging started 10/03/18 22:08:08


Gurobi 8.0.1 (win64, Python) logging started 10/03/18 22:24:35


Gurobi 8.0.1 (win64, Python) logging started 10/03/18 22:24:35


Gurobi 8.0.1 (win64, Python) logging started 10/03/18 22:24:35


Gurobi 8.0.1 (win64, Python) logging started 10/03/18 22:24:35


Gurobi 8.0.1 (win64, Python) logging started 10/03/18 22:24:35


Gurobi 8.0.1 (win64, Python) logging started 10/03/18 22:24:35


Gurobi 8.0.1 (win64, Python) logging started 10/03/18 22:24:35


Gurobi 8.0.1 (win64, Python) logging started 10/03/18 22:24:35


Gurobi 8.0.1 (win64, Python) logging started 10/03/18 22:24:35


Gurobi 8.0.1 (win64, Python) logging started 10/03/18 22:24:35


Gurobi 8.0.1 (win64, Python) logging started 10/03/18 22:24:35


Gurobi 8.0.1 (win64, Python) logging started 10/03/18 22:24:35


Gurobi 8.0.1 (win64, Python) logging started 10/03/18 22:24:35


Gurobi 8.0.1 (win64, Python) logging started 10/03/18 22:24:35


Gurobi 8.0.1 (win64, Python) logging started 10/03/18 22:24:35

